(declare-const c_0 Real)
(declare-const c_1 Real)
(declare-const c_2 Real)
(declare-const c_3 Real)
(declare-const c_4 Real)
(declare-const c_5 Real)
(declare-const c_6 Real)
(declare-const c_7 Real)
(declare-const c_8 Real)
(declare-const c_9 Real)
(declare-const c_10 Real)
(declare-const c_11 Real)
(declare-const c_12 Real)
(declare-const c_13 Real)
(declare-const c_14 Real)
(declare-const c_15 Real)
(declare-const c_16 Real)
(declare-const c_17 Real)
(declare-const c_18 Real)
(declare-const c_19 Real)
(declare-const c_20 Real)
(declare-const c_21 Real)
(declare-const c_22 Real)
(declare-const c_23 Real)
(declare-const c_24 Real)
(declare-const c_25 Real)
(declare-const c_26 Real)
(declare-const c_27 Real)
(declare-const c_28 Real)
(declare-const c_29 Real)
(declare-const c_30 Real)
(declare-const c_31 Real)
(declare-const c_32 Real)
(declare-const c_33 Real)
(declare-const c_34 Real)
(declare-const s_0 Real)
(declare-const s_1 Real)
(declare-const s_2 Real)
(declare-const s_3 Real)
(declare-const s_4 Real)
(declare-const s_5 Real)
(declare-const s_6 Real)
(declare-const s_7 Real)
(declare-const s_8 Real)
(declare-const s_9 Real)
(declare-const s_10 Real)
(declare-const s_11 Real)
(declare-const s_12 Real)
(declare-const s_13 Real)
(declare-const s_14 Real)
(declare-const s_15 Real)
(declare-const s_16 Real)
(declare-const s_17 Real)
(declare-const s_18 Real)
(declare-const s_19 Real)
(declare-const s_20 Real)
(declare-const s_21 Real)
(declare-const s_22 Real)
(declare-const s_23 Real)
(declare-const s_24 Real)
(declare-const s_25 Real)
(declare-const s_26 Real)
(declare-const s_27 Real)
(declare-const s_28 Real)
(declare-const s_29 Real)
(declare-const s_30 Real)
(declare-const s_31 Real)
(declare-const s_32 Real)
(declare-const s_33 Real)
(declare-const s_34 Real)
(assert (forall ((i Real) (j Real) (k Real) (m Real) (N Real) (n Real) ) (=> (and (>= (+ (* 1024 1) (* 1 i ) ) 0) (>= (+ (* 1023 1) (* (- 1) i ) ) 0) (>= (+ (* 1024 1) (* 1 j ) ) 0) (>= (+ (* 1023 1) (* (- 1) j ) ) 0) (>= (+ (* 1024 1) (* 1 k ) ) 0) (>= (+ (* 1023 1) (* (- 1) k ) ) 0) (>= (+ (* 1024 1) (* 1 m ) ) 0) (>= (+ (* 1023 1) (* (- 1) m ) ) 0) (>= (+ (* 1024 1) (* 1 N ) ) 0) (>= (+ (* 1023 1) (* (- 1) N ) ) 0) (>= (+ (* 1024 1) (* 1 n ) ) 0) (>= (+ (* 1023 1) (* (- 1) n ) ) 0) ) (>= (+ (* 1 N s_1 ) (* 1 i s_2 ) (* 1 j s_3 ) (* 1 k s_4 ) (* 1 m s_5 ) (* 1 n s_6 ) (* 1 s_0 ) ) 0) )))
(assert (forall ((i Real) (j Real) (k Real) (m Real) (N Real) (n Real) ) (=> (and (>= (+ (* 1024 1) (* 1 i ) ) 0) (>= (+ (* 1023 1) (* (- 1) i ) ) 0) (>= (+ (* 1024 1) (* 1 j ) ) 0) (>= (+ (* 1023 1) (* (- 1) j ) ) 0) (>= (+ (* 1024 1) (* 1 k ) ) 0) (>= (+ (* 1023 1) (* (- 1) k ) ) 0) (>= (+ (* 1024 1) (* 1 m ) ) 0) (>= (+ (* 1023 1) (* (- 1) m ) ) 0) (>= (+ (* 1024 1) (* 1 N ) ) 0) (>= (+ (* 1023 1) (* (- 1) N ) ) 0) (>= (+ (* 1024 1) (* 1 n ) ) 0) (>= (+ (* 1023 1) (* (- 1) n ) ) 0) ) (>= (+ (* 1 N c_1 ) (* 1 c_0 ) (* 1 c_2 i ) (* 1 c_3 j ) (* 1 c_4 k ) (* 1 c_5 m ) (* 1 c_6 n ) ) 0) )))
(assert (forall ((i Real) (j Real) (k Real) (m Real) (N Real) (n Real) ) (=> (and (>= (* 1 n ) 0) (>= (* 1 m ) 0) (>= (* 1 N ) 0) (>= (+ (* 1024 1) (* 1 i ) ) 0) (>= (+ (* 1024 1) (* 1 j ) ) 0) (>= (+ (* 1024 1) (* 1 k ) ) 0) (>= (+ (* 1024 1) (* 1 m ) ) 0) (>= (+ (* 1024 1) (* 1 N ) ) 0) (>= (+ (* 1024 1) (* 1 n ) ) 0) (>= (+ (* 1023 1) (* (- 1) n ) ) 0) (>= (+ (* 1023 1) (* (- 1) N ) ) 0) (>= (+ (* 1023 1) (* (- 1) m ) ) 0) (>= (+ (* 1023 1) (* (- 1) k ) ) 0) (>= (+ (* 1023 1) (* (- 1) j ) ) 0) (>= (+ (* 1023 1) (* (- 1) i ) ) 0) (>= (+ (* 1 N s_1 ) (* 1 i s_2 ) (* 1 j s_3 ) (* 1 k s_4 ) (* 1 m s_5 ) (* 1 n s_6 ) (* 1 s_0 ) ) 0) ) (>= (+ (* 1 N s_22 ) (* 1 j s_24 ) (* 1 k s_25 ) (* 1 m s_26 ) (* 1 n s_27 ) (* 1 s_21 ) ) 0) )))
(assert (forall ((i Real) (j Real) (k Real) (m Real) (N Real) (n Real) ) (=> (and (>= (* 1 n ) 0) (>= (* 1 m ) 0) (>= (* 1 N ) 0) (>= (+ (* 1024 1) (* 1 i ) ) 0) (>= (+ (* 1024 1) (* 1 j ) ) 0) (>= (+ (* 1024 1) (* 1 k ) ) 0) (>= (+ (* 1024 1) (* 1 m ) ) 0) (>= (+ (* 1024 1) (* 1 N ) ) 0) (>= (+ (* 1024 1) (* 1 n ) ) 0) (>= (+ (* 1023 1) (* (- 1) n ) ) 0) (>= (+ (* 1023 1) (* (- 1) N ) ) 0) (>= (+ (* 1023 1) (* (- 1) m ) ) 0) (>= (+ (* 1023 1) (* (- 1) k ) ) 0) (>= (+ (* 1023 1) (* (- 1) j ) ) 0) (>= (+ (* 1023 1) (* (- 1) i ) ) 0) (>= (+ (* 1 N s_1 ) (* 1 i s_2 ) (* 1 j s_3 ) (* 1 k s_4 ) (* 1 m s_5 ) (* 1 n s_6 ) (* 1 s_0 ) ) 0) ) (>= (+ (* 1 N c_22 ) (* 1 c_21 ) (* 1 c_24 j ) (* 1 c_25 k ) (* 1 c_26 m ) (* 1 c_27 n ) ) 0) )))
(assert (forall ((i Real) (j Real) (k Real) (m Real) (N Real) (n Real) ) (=> (and (>= (* 1 n ) 0) (>= (* 1 m ) 0) (>= (* 1 N ) 0) (>= (+ (* 1024 1) (* 1 i ) ) 0) (>= (+ (* 1024 1) (* 1 j ) ) 0) (>= (+ (* 1024 1) (* 1 k ) ) 0) (>= (+ (* 1024 1) (* 1 m ) ) 0) (>= (+ (* 1024 1) (* 1 N ) ) 0) (>= (+ (* 1024 1) (* 1 n ) ) 0) (>= (+ (* 1023 1) (* (- 1) n ) ) 0) (>= (+ (* 1023 1) (* (- 1) N ) ) 0) (>= (+ (* 1023 1) (* (- 1) m ) ) 0) (>= (+ (* 1023 1) (* (- 1) k ) ) 0) (>= (+ (* 1023 1) (* (- 1) j ) ) 0) (>= (+ (* 1023 1) (* (- 1) i ) ) 0) (>= (+ (* 1 N s_1 ) (* 1 i s_2 ) (* 1 j s_3 ) (* 1 k s_4 ) (* 1 m s_5 ) (* 1 n s_6 ) (* 1 s_0 ) ) 0) ) (>= (+ (* (- 1) 1) (* 1 N c_1 ) (* (- 1) N c_22 ) (* 1 c_0 ) (* 1 c_2 i ) (* (- 1) c_21 ) (* (- 1) c_24 j ) (* (- 1) c_25 k ) (* (- 1) c_26 m ) (* (- 1) c_27 n ) (* 1 c_3 j ) (* 1 c_4 k ) (* 1 c_5 m ) (* 1 c_6 n ) ) 0) )))
(assert (forall ((i Real) (j Real) (k Real) (m Real) (N Real) (n Real) ) (=> (and (>= (+ (* (- 1) 1) (* (- 1) n ) ) 0) (>= (+ (* 1024 1) (* 1 i ) ) 0) (>= (+ (* 1024 1) (* 1 j ) ) 0) (>= (+ (* 1024 1) (* 1 k ) ) 0) (>= (+ (* 1024 1) (* 1 m ) ) 0) (>= (+ (* 1024 1) (* 1 N ) ) 0) (>= (+ (* 1024 1) (* 1 n ) ) 0) (>= (+ (* 1023 1) (* (- 1) n ) ) 0) (>= (+ (* 1023 1) (* (- 1) N ) ) 0) (>= (+ (* 1023 1) (* (- 1) m ) ) 0) (>= (+ (* 1023 1) (* (- 1) k ) ) 0) (>= (+ (* 1023 1) (* (- 1) j ) ) 0) (>= (+ (* 1023 1) (* (- 1) i ) ) 0) (>= (+ (* 1 N s_1 ) (* 1 i s_2 ) (* 1 j s_3 ) (* 1 k s_4 ) (* 1 m s_5 ) (* 1 n s_6 ) (* 1 s_0 ) ) 0) ) (>= (+ (* 1 N s_29 ) (* 1 i s_30 ) (* 1 j s_31 ) (* 1 k s_32 ) (* 1 m s_33 ) (* 1 n s_34 ) (* 1 s_28 ) ) 0) )))
(assert (forall ((i Real) (j Real) (k Real) (m Real) (N Real) (n Real) ) (=> (and (>= (+ (* (- 1) 1) (* (- 1) n ) ) 0) (>= (+ (* 1024 1) (* 1 i ) ) 0) (>= (+ (* 1024 1) (* 1 j ) ) 0) (>= (+ (* 1024 1) (* 1 k ) ) 0) (>= (+ (* 1024 1) (* 1 m ) ) 0) (>= (+ (* 1024 1) (* 1 N ) ) 0) (>= (+ (* 1024 1) (* 1 n ) ) 0) (>= (+ (* 1023 1) (* (- 1) n ) ) 0) (>= (+ (* 1023 1) (* (- 1) N ) ) 0) (>= (+ (* 1023 1) (* (- 1) m ) ) 0) (>= (+ (* 1023 1) (* (- 1) k ) ) 0) (>= (+ (* 1023 1) (* (- 1) j ) ) 0) (>= (+ (* 1023 1) (* (- 1) i ) ) 0) (>= (+ (* 1 N s_1 ) (* 1 i s_2 ) (* 1 j s_3 ) (* 1 k s_4 ) (* 1 m s_5 ) (* 1 n s_6 ) (* 1 s_0 ) ) 0) ) (>= (+ (* 1 N c_29 ) (* 1 c_28 ) (* 1 c_30 i ) (* 1 c_31 j ) (* 1 c_32 k ) (* 1 c_33 m ) (* 1 c_34 n ) ) 0) )))
(assert (forall ((i Real) (j Real) (k Real) (m Real) (N Real) (n Real) ) (=> (and (>= (+ (* (- 1) 1) (* (- 1) m ) ) 0) (>= (+ (* 1024 1) (* 1 i ) ) 0) (>= (+ (* 1024 1) (* 1 j ) ) 0) (>= (+ (* 1024 1) (* 1 k ) ) 0) (>= (+ (* 1024 1) (* 1 m ) ) 0) (>= (+ (* 1024 1) (* 1 N ) ) 0) (>= (+ (* 1024 1) (* 1 n ) ) 0) (>= (+ (* 1023 1) (* (- 1) n ) ) 0) (>= (+ (* 1023 1) (* (- 1) N ) ) 0) (>= (+ (* 1023 1) (* (- 1) m ) ) 0) (>= (+ (* 1023 1) (* (- 1) k ) ) 0) (>= (+ (* 1023 1) (* (- 1) j ) ) 0) (>= (+ (* 1023 1) (* (- 1) i ) ) 0) (>= (+ (* 1 N s_1 ) (* 1 i s_2 ) (* 1 j s_3 ) (* 1 k s_4 ) (* 1 m s_5 ) (* 1 n s_6 ) (* 1 s_0 ) ) 0) ) (>= (+ (* 1 N s_29 ) (* 1 i s_30 ) (* 1 j s_31 ) (* 1 k s_32 ) (* 1 m s_33 ) (* 1 n s_34 ) (* 1 s_28 ) ) 0) )))
(assert (forall ((i Real) (j Real) (k Real) (m Real) (N Real) (n Real) ) (=> (and (>= (+ (* (- 1) 1) (* (- 1) m ) ) 0) (>= (+ (* 1024 1) (* 1 i ) ) 0) (>= (+ (* 1024 1) (* 1 j ) ) 0) (>= (+ (* 1024 1) (* 1 k ) ) 0) (>= (+ (* 1024 1) (* 1 m ) ) 0) (>= (+ (* 1024 1) (* 1 N ) ) 0) (>= (+ (* 1024 1) (* 1 n ) ) 0) (>= (+ (* 1023 1) (* (- 1) n ) ) 0) (>= (+ (* 1023 1) (* (- 1) N ) ) 0) (>= (+ (* 1023 1) (* (- 1) m ) ) 0) (>= (+ (* 1023 1) (* (- 1) k ) ) 0) (>= (+ (* 1023 1) (* (- 1) j ) ) 0) (>= (+ (* 1023 1) (* (- 1) i ) ) 0) (>= (+ (* 1 N s_1 ) (* 1 i s_2 ) (* 1 j s_3 ) (* 1 k s_4 ) (* 1 m s_5 ) (* 1 n s_6 ) (* 1 s_0 ) ) 0) ) (>= (+ (* 1 N c_29 ) (* 1 c_28 ) (* 1 c_30 i ) (* 1 c_31 j ) (* 1 c_32 k ) (* 1 c_33 m ) (* 1 c_34 n ) ) 0) )))
(assert (forall ((i Real) (j Real) (k Real) (m Real) (N Real) (n Real) ) (=> (and (>= (+ (* (- 1) 1) (* (- 1) N ) ) 0) (>= (+ (* 1024 1) (* 1 i ) ) 0) (>= (+ (* 1024 1) (* 1 j ) ) 0) (>= (+ (* 1024 1) (* 1 k ) ) 0) (>= (+ (* 1024 1) (* 1 m ) ) 0) (>= (+ (* 1024 1) (* 1 N ) ) 0) (>= (+ (* 1024 1) (* 1 n ) ) 0) (>= (+ (* 1023 1) (* (- 1) n ) ) 0) (>= (+ (* 1023 1) (* (- 1) N ) ) 0) (>= (+ (* 1023 1) (* (- 1) m ) ) 0) (>= (+ (* 1023 1) (* (- 1) k ) ) 0) (>= (+ (* 1023 1) (* (- 1) j ) ) 0) (>= (+ (* 1023 1) (* (- 1) i ) ) 0) (>= (+ (* 1 N s_1 ) (* 1 i s_2 ) (* 1 j s_3 ) (* 1 k s_4 ) (* 1 m s_5 ) (* 1 n s_6 ) (* 1 s_0 ) ) 0) ) (>= (+ (* 1 N s_29 ) (* 1 i s_30 ) (* 1 j s_31 ) (* 1 k s_32 ) (* 1 m s_33 ) (* 1 n s_34 ) (* 1 s_28 ) ) 0) )))
(assert (forall ((i Real) (j Real) (k Real) (m Real) (N Real) (n Real) ) (=> (and (>= (+ (* (- 1) 1) (* (- 1) N ) ) 0) (>= (+ (* 1024 1) (* 1 i ) ) 0) (>= (+ (* 1024 1) (* 1 j ) ) 0) (>= (+ (* 1024 1) (* 1 k ) ) 0) (>= (+ (* 1024 1) (* 1 m ) ) 0) (>= (+ (* 1024 1) (* 1 N ) ) 0) (>= (+ (* 1024 1) (* 1 n ) ) 0) (>= (+ (* 1023 1) (* (- 1) n ) ) 0) (>= (+ (* 1023 1) (* (- 1) N ) ) 0) (>= (+ (* 1023 1) (* (- 1) m ) ) 0) (>= (+ (* 1023 1) (* (- 1) k ) ) 0) (>= (+ (* 1023 1) (* (- 1) j ) ) 0) (>= (+ (* 1023 1) (* (- 1) i ) ) 0) (>= (+ (* 1 N s_1 ) (* 1 i s_2 ) (* 1 j s_3 ) (* 1 k s_4 ) (* 1 m s_5 ) (* 1 n s_6 ) (* 1 s_0 ) ) 0) ) (>= (+ (* 1 N c_29 ) (* 1 c_28 ) (* 1 c_30 i ) (* 1 c_31 j ) (* 1 c_32 k ) (* 1 c_33 m ) (* 1 c_34 n ) ) 0) )))
(assert (forall ((i Real) (j Real) (k Real) (m Real) (N Real) (n Real) ) (=> (and (>= (+ (* (- 1) 1) (* 1 N ) (* (- 1) k ) ) 0) (>= (+ (* (- 1) i ) (* 1 k ) ) 0) (>= (+ (* (- 1) j ) (* 1 m ) ) 0) (>= (* 1 n ) 0) (>= (+ (* 1023 1) (* (- 1) n ) ) 0) (>= (+ (* (- 1) 1) (* 1 j ) ) 0) (>= (+ (* 1 N ) (* 1 i ) (* (- 1) k ) ) 0) (>= (* 1 i ) 0) (>= (+ (* 1 N s_8 ) (* 1 i s_9 ) (* 1 j s_10 ) (* 1 k s_11 ) (* 1 m s_12 ) (* 1 n s_13 ) (* 1 s_7 ) ) 0) ) (>= (+ (* 1 N s_8 ) (* 1 i s_9 ) (* 1 j s_10 ) (* 1 k s_11 ) (* 1 m s_12 ) (* 1 n s_13 ) (* 1 s_11 ) (* 1 s_7 ) ) 0) )))
(assert (forall ((i Real) (j Real) (k Real) (m Real) (N Real) (n Real) ) (=> (and (>= (+ (* (- 1) 1) (* 1 N ) (* (- 1) k ) ) 0) (>= (+ (* (- 1) i ) (* 1 k ) ) 0) (>= (+ (* (- 1) j ) (* 1 m ) ) 0) (>= (* 1 n ) 0) (>= (+ (* 1023 1) (* (- 1) n ) ) 0) (>= (+ (* (- 1) 1) (* 1 j ) ) 0) (>= (+ (* 1 N ) (* 1 i ) (* (- 1) k ) ) 0) (>= (* 1 i ) 0) (>= (+ (* 1 N s_8 ) (* 1 i s_9 ) (* 1 j s_10 ) (* 1 k s_11 ) (* 1 m s_12 ) (* 1 n s_13 ) (* 1 s_7 ) ) 0) ) (>= (+ (* 1 N c_8 ) (* 1 c_10 j ) (* 1 c_11 ) (* 1 c_11 k ) (* 1 c_12 m ) (* 1 c_13 n ) (* 1 c_7 ) (* 1 c_9 i ) ) 0) )))
(assert (forall ((i Real) (j Real) (k Real) (m Real) (N Real) (n Real) ) (=> (and (>= (+ (* (- 1) 1) (* 1 N ) (* (- 1) k ) ) 0) (>= (+ (* (- 1) i ) (* 1 k ) ) 0) (>= (+ (* (- 1) j ) (* 1 m ) ) 0) (>= (* 1 n ) 0) (>= (+ (* 1023 1) (* (- 1) n ) ) 0) (>= (+ (* (- 1) 1) (* 1 j ) ) 0) (>= (+ (* 1 N ) (* 1 i ) (* (- 1) k ) ) 0) (>= (* 1 i ) 0) (>= (+ (* 1 N s_8 ) (* 1 i s_9 ) (* 1 j s_10 ) (* 1 k s_11 ) (* 1 m s_12 ) (* 1 n s_13 ) (* 1 s_7 ) ) 0) ) (>= (+ (* (- 1) 1) (* (- 1) c_11 ) ) 0) )))
(assert (forall ((i Real) (j Real) (k Real) (m Real) (N Real) (n Real) ) (=> (and (>= (+ (* (- 1) N ) (* 1 k ) ) 0) (>= (+ (* (- 1) i ) (* 1 k ) ) 0) (>= (+ (* (- 1) j ) (* 1 m ) ) 0) (>= (* 1 n ) 0) (>= (+ (* 1023 1) (* (- 1) n ) ) 0) (>= (+ (* (- 1) 1) (* 1 j ) ) 0) (>= (+ (* 1 N ) (* 1 i ) (* (- 1) k ) ) 0) (>= (* 1 i ) 0) (>= (+ (* 1 N s_8 ) (* 1 i s_9 ) (* 1 j s_10 ) (* 1 k s_11 ) (* 1 m s_12 ) (* 1 n s_13 ) (* 1 s_7 ) ) 0) ) (>= (+ (* 1 N s_15 ) (* 1 j s_17 ) (* 1 k s_16 ) (* 1 k s_18 ) (* 1 m s_19 ) (* 1 n s_20 ) (* 1 s_14 ) ) 0) )))
(assert (forall ((i Real) (j Real) (k Real) (m Real) (N Real) (n Real) ) (=> (and (>= (+ (* (- 1) N ) (* 1 k ) ) 0) (>= (+ (* (- 1) i ) (* 1 k ) ) 0) (>= (+ (* (- 1) j ) (* 1 m ) ) 0) (>= (* 1 n ) 0) (>= (+ (* 1023 1) (* (- 1) n ) ) 0) (>= (+ (* (- 1) 1) (* 1 j ) ) 0) (>= (+ (* 1 N ) (* 1 i ) (* (- 1) k ) ) 0) (>= (* 1 i ) 0) (>= (+ (* 1 N s_8 ) (* 1 i s_9 ) (* 1 j s_10 ) (* 1 k s_11 ) (* 1 m s_12 ) (* 1 n s_13 ) (* 1 s_7 ) ) 0) ) (>= (+ (* 1 N c_15 ) (* 1 c_14 ) (* 1 c_16 k ) (* 1 c_17 j ) (* 1 c_18 k ) (* 1 c_19 m ) (* 1 c_20 n ) ) 0) )))
(assert (forall ((i Real) (j Real) (k Real) (m Real) (N Real) (n Real) ) (=> (and (>= (+ (* (- 1) N ) (* 1 k ) ) 0) (>= (+ (* (- 1) i ) (* 1 k ) ) 0) (>= (+ (* (- 1) j ) (* 1 m ) ) 0) (>= (* 1 n ) 0) (>= (+ (* 1023 1) (* (- 1) n ) ) 0) (>= (+ (* (- 1) 1) (* 1 j ) ) 0) (>= (+ (* 1 N ) (* 1 i ) (* (- 1) k ) ) 0) (>= (* 1 i ) 0) (>= (+ (* 1 N s_8 ) (* 1 i s_9 ) (* 1 j s_10 ) (* 1 k s_11 ) (* 1 m s_12 ) (* 1 n s_13 ) (* 1 s_7 ) ) 0) ) (>= (+ (* (- 1) 1) (* (- 1) N c_15 ) (* 1 N c_8 ) (* 1 c_10 j ) (* 1 c_11 k ) (* 1 c_12 m ) (* 1 c_13 n ) (* (- 1) c_14 ) (* (- 1) c_16 k ) (* (- 1) c_17 j ) (* (- 1) c_18 k ) (* (- 1) c_19 m ) (* (- 1) c_20 n ) (* 1 c_7 ) (* 1 c_9 i ) ) 0) )))
(assert (forall ((i Real) (j Real) (k Real) (m Real) (N Real) (n Real) ) (=> (and (>= (+ (* (- 1) 1) (* (- 1) j ) (* 1 m ) ) 0) (>= (+ (* 1023 1) (* (- 1) n ) ) 0) (>= (* 1 n ) 0) (>= (* 1 N ) 0) (>= (+ (* (- 1) j ) (* 1 m ) ) 0) (>= (* 1 j ) 0) (>= (* 1 i ) 0) (>= (+ (* 1 N s_15 ) (* 1 i s_16 ) (* 1 j s_17 ) (* 1 k s_18 ) (* 1 m s_19 ) (* 1 n s_20 ) (* 1 s_14 ) ) 0) ) (>= (+ (* 1 N s_8 ) (* 1 i s_11 ) (* 1 i s_9 ) (* 1 j s_10 ) (* 1 m s_12 ) (* 1 n s_13 ) (* 1 s_10 ) (* 1 s_7 ) ) 0) )))
(assert (forall ((i Real) (j Real) (k Real) (m Real) (N Real) (n Real) ) (=> (and (>= (+ (* (- 1) 1) (* (- 1) j ) (* 1 m ) ) 0) (>= (+ (* 1023 1) (* (- 1) n ) ) 0) (>= (* 1 n ) 0) (>= (* 1 N ) 0) (>= (+ (* (- 1) j ) (* 1 m ) ) 0) (>= (* 1 j ) 0) (>= (* 1 i ) 0) (>= (+ (* 1 N s_15 ) (* 1 i s_16 ) (* 1 j s_17 ) (* 1 k s_18 ) (* 1 m s_19 ) (* 1 n s_20 ) (* 1 s_14 ) ) 0) ) (>= (+ (* 1 N c_8 ) (* 1 c_10 ) (* 1 c_10 j ) (* 1 c_11 i ) (* 1 c_12 m ) (* 1 c_13 n ) (* 1 c_7 ) (* 1 c_9 i ) ) 0) )))
(assert (forall ((i Real) (j Real) (k Real) (m Real) (N Real) (n Real) ) (=> (and (>= (+ (* (- 1) 1) (* (- 1) j ) (* 1 m ) ) 0) (>= (+ (* 1023 1) (* (- 1) n ) ) 0) (>= (* 1 n ) 0) (>= (* 1 N ) 0) (>= (+ (* (- 1) j ) (* 1 m ) ) 0) (>= (* 1 j ) 0) (>= (* 1 i ) 0) (>= (+ (* 1 N s_15 ) (* 1 i s_16 ) (* 1 j s_17 ) (* 1 k s_18 ) (* 1 m s_19 ) (* 1 n s_20 ) (* 1 s_14 ) ) 0) ) (>= (+ (* (- 1) 1) (* 1 N c_15 ) (* (- 1) N c_8 ) (* (- 1) c_10 ) (* (- 1) c_10 j ) (* (- 1) c_11 i ) (* (- 1) c_12 m ) (* (- 1) c_13 n ) (* 1 c_14 ) (* 1 c_16 i ) (* 1 c_17 j ) (* 1 c_18 k ) (* 1 c_19 m ) (* 1 c_20 n ) (* (- 1) c_7 ) (* (- 1) c_9 i ) ) 0) )))
(assert (forall ((i Real) (j Real) (k Real) (m Real) (N Real) (n Real) ) (=> (and (>= (+ (* 1 j ) (* (- 1) m ) ) 0) (>= (+ (* 1023 1) (* (- 1) n ) ) 0) (>= (* 1 n ) 0) (>= (* 1 N ) 0) (>= (+ (* (- 1) j ) (* 1 m ) ) 0) (>= (* 1 j ) 0) (>= (* 1 i ) 0) (>= (+ (* 1 N s_15 ) (* 1 i s_16 ) (* 1 j s_17 ) (* 1 k s_18 ) (* 1 m s_19 ) (* 1 n s_20 ) (* 1 s_14 ) ) 0) ) (>= (+ (* 1 N s_22 ) (* 1 i s_23 ) (* 1 j s_24 ) (* 1 k s_25 ) (* 1 m s_26 ) (* 1 n s_27 ) (* 1 s_21 ) (* 1 s_23 ) ) 0) )))
(assert (forall ((i Real) (j Real) (k Real) (m Real) (N Real) (n Real) ) (=> (and (>= (+ (* 1 j ) (* (- 1) m ) ) 0) (>= (+ (* 1023 1) (* (- 1) n ) ) 0) (>= (* 1 n ) 0) (>= (* 1 N ) 0) (>= (+ (* (- 1) j ) (* 1 m ) ) 0) (>= (* 1 j ) 0) (>= (* 1 i ) 0) (>= (+ (* 1 N s_15 ) (* 1 i s_16 ) (* 1 j s_17 ) (* 1 k s_18 ) (* 1 m s_19 ) (* 1 n s_20 ) (* 1 s_14 ) ) 0) ) (>= (+ (* 1 N c_22 ) (* 1 c_21 ) (* 1 c_23 ) (* 1 c_23 i ) (* 1 c_24 j ) (* 1 c_25 k ) (* 1 c_26 m ) (* 1 c_27 n ) ) 0) )))
(assert (forall ((i Real) (j Real) (k Real) (m Real) (N Real) (n Real) ) (=> (and (>= (+ (* 1 j ) (* (- 1) m ) ) 0) (>= (+ (* 1023 1) (* (- 1) n ) ) 0) (>= (* 1 n ) 0) (>= (* 1 N ) 0) (>= (+ (* (- 1) j ) (* 1 m ) ) 0) (>= (* 1 j ) 0) (>= (* 1 i ) 0) (>= (+ (* 1 N s_15 ) (* 1 i s_16 ) (* 1 j s_17 ) (* 1 k s_18 ) (* 1 m s_19 ) (* 1 n s_20 ) (* 1 s_14 ) ) 0) ) (>= (+ (* (- 1) 1) (* 1 N c_15 ) (* (- 1) N c_22 ) (* 1 c_14 ) (* 1 c_16 i ) (* 1 c_17 j ) (* 1 c_18 k ) (* 1 c_19 m ) (* 1 c_20 n ) (* (- 1) c_21 ) (* (- 1) c_23 ) (* (- 1) c_23 i ) (* (- 1) c_24 j ) (* (- 1) c_25 k ) (* (- 1) c_26 m ) (* (- 1) c_27 n ) ) 0) )))
(assert (forall ((i Real) (j Real) (k Real) (m Real) (N Real) (n Real) ) (=> (and (>= (+ (* (- 1) 1) (* (- 1) i ) (* 1 n ) ) 0) (>= (* 1 n ) 0) (>= (* 1 N ) 0) (>= (* 1 m ) 0) (>= (* 1 i ) 0) (>= (+ (* 1023 1) (* (- 1) n ) ) 0) (>= (+ (* 1 N s_22 ) (* 1 i s_23 ) (* 1 j s_24 ) (* 1 k s_25 ) (* 1 m s_26 ) (* 1 n s_27 ) (* 1 s_21 ) ) 0) ) (>= (+ (* 1 N s_15 ) (* 1 i s_16 ) (* 1 k s_18 ) (* 1 m s_19 ) (* 1 n s_20 ) (* 1 s_14 ) ) 0) )))
(assert (forall ((i Real) (j Real) (k Real) (m Real) (N Real) (n Real) ) (=> (and (>= (+ (* (- 1) 1) (* (- 1) i ) (* 1 n ) ) 0) (>= (* 1 n ) 0) (>= (* 1 N ) 0) (>= (* 1 m ) 0) (>= (* 1 i ) 0) (>= (+ (* 1023 1) (* (- 1) n ) ) 0) (>= (+ (* 1 N s_22 ) (* 1 i s_23 ) (* 1 j s_24 ) (* 1 k s_25 ) (* 1 m s_26 ) (* 1 n s_27 ) (* 1 s_21 ) ) 0) ) (>= (+ (* 1 N c_15 ) (* 1 c_14 ) (* 1 c_16 i ) (* 1 c_18 k ) (* 1 c_19 m ) (* 1 c_20 n ) ) 0) )))
(assert (forall ((i Real) (j Real) (k Real) (m Real) (N Real) (n Real) ) (=> (and (>= (+ (* (- 1) 1) (* (- 1) i ) (* 1 n ) ) 0) (>= (* 1 n ) 0) (>= (* 1 N ) 0) (>= (* 1 m ) 0) (>= (* 1 i ) 0) (>= (+ (* 1023 1) (* (- 1) n ) ) 0) (>= (+ (* 1 N s_22 ) (* 1 i s_23 ) (* 1 j s_24 ) (* 1 k s_25 ) (* 1 m s_26 ) (* 1 n s_27 ) (* 1 s_21 ) ) 0) ) (>= (+ (* (- 1) 1) (* (- 1) N c_15 ) (* 1 N c_22 ) (* (- 1) c_14 ) (* (- 1) c_16 i ) (* (- 1) c_18 k ) (* (- 1) c_19 m ) (* (- 1) c_20 n ) (* 1 c_21 ) (* 1 c_23 i ) (* 1 c_24 j ) (* 1 c_25 k ) (* 1 c_26 m ) (* 1 c_27 n ) ) 0) )))
(assert (forall ((i Real) (j Real) (k Real) (m Real) (N Real) (n Real) ) (=> (and (>= (+ (* 1 i ) (* (- 1) n ) ) 0) (>= (* 1 n ) 0) (>= (* 1 N ) 0) (>= (* 1 m ) 0) (>= (* 1 i ) 0) (>= (+ (* 1023 1) (* (- 1) n ) ) 0) (>= (+ (* 1 N s_22 ) (* 1 i s_23 ) (* 1 j s_24 ) (* 1 k s_25 ) (* 1 m s_26 ) (* 1 n s_27 ) (* 1 s_21 ) ) 0) ) (>= (+ (* 1 N s_29 ) (* 1 i s_30 ) (* 1 j s_31 ) (* 1 k s_32 ) (* 1 m s_33 ) (* 1 n s_34 ) (* 1 s_28 ) ) 0) )))
(assert (forall ((i Real) (j Real) (k Real) (m Real) (N Real) (n Real) ) (=> (and (>= (+ (* 1 i ) (* (- 1) n ) ) 0) (>= (* 1 n ) 0) (>= (* 1 N ) 0) (>= (* 1 m ) 0) (>= (* 1 i ) 0) (>= (+ (* 1023 1) (* (- 1) n ) ) 0) (>= (+ (* 1 N s_22 ) (* 1 i s_23 ) (* 1 j s_24 ) (* 1 k s_25 ) (* 1 m s_26 ) (* 1 n s_27 ) (* 1 s_21 ) ) 0) ) (>= (+ (* 1 N c_29 ) (* 1 c_28 ) (* 1 c_30 i ) (* 1 c_31 j ) (* 1 c_32 k ) (* 1 c_33 m ) (* 1 c_34 n ) ) 0) )))

(check-sat)
(get-model)
